sat-competition-2018/orders/benchmarks-chi/cms-scheel-sha3-order-w1-rc-o3.cnf
c This is a CNF SAT formula in the DIMACS CNF format,
c produced with the bc2cnf translator by Tommi Junttila;
c see http://users.ics.aalto.fi/tjunttil/circuits/index.html
c cidentity <-> 1
c h1out24 <-> 28
c h1r2c24 <-> 28
c h1out23 <-> 31
c h1r2c23 <-> 31
c h1out22 <-> 34
c h1r2c22 <-> 34
c h1out21 <-> 37
c h1r2c21 <-> 37
c h1out20 <-> 40
c h1r2c20 <-> 40
c h1out19 <-> 43
c h1r2c19 <-> 43
c h1out18 <-> 46
c h1r2c18 <-> 46
c h1out17 <-> 49
c h1r2c17 <-> 49
c h1out16 <-> 52
c h1r2c16 <-> 52
c h1out15 <-> 55
c h1r2c15 <-> 55
c h1out14 <-> 58
c h1r2c14 <-> 58
c h1out13 <-> 61
c h1r2c13 <-> 61
c h1out12 <-> 64
c h1r2c12 <-> 64
c h1out11 <-> 67
c h1r2c11 <-> 67
c h1out10 <-> 70
c h1r2c10 <-> 70
c h1out9 <-> 73
c h1r2c9 <-> 73
c h1out8 <-> 76
c h1r2c8 <-> 76
c h1out7 <-> 79
c h1r2c7 <-> 79
c h1out6 <-> 82
c h1r2c6 <-> 82
c h1out5 <-> 85
c h1r2c5 <-> 85
c h1out4 <-> 88
c h1r2c4 <-> 88
c h1out3 <-> 91
c h1r2c3 <-> 91
c h1out2 <-> 94
c h1r2c2 <-> 94
c h1out1 <-> 97
c h1r2c1 <-> 97
c h1out0 <-> 100
c h1r2c0 <-> 100
c h1r1c24 <-> 103
c h1r1c23 <-> 106
c h1r1c22 <-> 109
c h1r1c21 <-> 112
c h1r1c20 <-> 115
c h1r1c19 <-> 118
c h1r1c18 <-> 121
c h1r1c17 <-> 124
c h1r1c16 <-> 127
c h1r1c15 <-> 130
c h1r1c14 <-> 133
c h1r1c13 <-> 136
c h1r1c12 <-> 139
c h1r1c11 <-> 142
c h1r1c10 <-> 145
c h1r1c9 <-> 148
c h1r1c8 <-> 151
c h1r1c7 <-> 154
c h1r1c6 <-> 157
c h1r1c5 <-> 160
c h1r1c4 <-> 163
c h1r1c3 <-> 166
c h1r1c2 <-> 169
c h1r1c1 <-> 172
c h1r1c0 <-> 175
c h1r0c24 <-> 178
c h1r0c23 <-> 181
c h1r0c22 <-> 184
c h1in24 <-> 186
c h1r0c21 <-> 188
c h1in23 <-> 190
c h1r0c20 <-> 192
c h1in22 <-> 194
c h1in21 <-> 196
c h1in20 <-> 197
c h1r0c19 <-> 198
c h1r0c18 <-> 201
c h1r0c17 <-> 204
c h1in19 <-> 206
c h1r0c16 <-> 208
c h1in18 <-> 210
c h1r0c15 <-> 212
c h1in17 <-> 214
c h1in16 <-> 216
c h1in15 <-> 217
c h1r0c14 <-> 218
c h1r0c13 <-> 221
c h1r0c12 <-> 224
c h1in14 <-> 226
c h1r0c11 <-> 228
c h1in13 <-> 230
c h1r0c10 <-> 232
c h1in12 <-> 234
c h1in11 <-> 236
c h1in10 <-> 237
c h1r0c9 <-> 238
c h1r0c8 <-> 241
c h1r0c7 <-> 244
c h1in9 <-> 246
c h1r0c6 <-> 248
c h1in8 <-> 250
c h1r0c5 <-> 252
c h1in7 <-> 254
c h1in6 <-> 256
c h1in5 <-> 257
c h1r0c4 <-> 258
c h1r0c3 <-> 261
c h1r0c2 <-> 264
c h1in4 <-> 266
c h1r0c1 <-> 268
c h1in3 <-> 270
c h1r0c0 <-> 272
c h1in2 <-> 274
c h1in1 <-> 276
c h1in0 <-> 277
p cnf 277 803
1 0
-2 3 0
-2 4 0
-2 5 0
-2 6 0
-2 7 0
-2 8 0
-2 9 0
-2 10 0
-2 11 0
-2 12 0
-2 13 0
-2 14 0
-2 15 0
-2 16 0
-2 17 0
-2 18 0
-2 19 0
-2 20 0
-2 21 0
-2 22 0
-2 23 0
-2 24 0
-2 25 0
-2 26 0
-2 27 0
2 -27 -26 -25 -24 -23 -22 -21 -20 -19 -18 -17 -16 -15 -14 -13 -12 -11 -10 -9 -8 -7 -6 -5 -4 -3 0
-2 0
3 186 28 0
3 -186 -28 0
-3 186 -28 0
-3 -186 28 0
4 190 31 0
4 -190 -31 0
-4 190 -31 0
-4 -190 31 0
5 194 34 0
5 -194 -34 0
-5 194 -34 0
-5 -194 34 0
6 196 37 0
6 -196 -37 0
-6 196 -37 0
-6 -196 37 0
7 197 40 0
7 -197 -40 0
-7 197 -40 0
-7 -197 40 0
8 206 43 0
8 -206 -43 0
-8 206 -43 0
-8 -206 43 0
9 210 46 0
9 -210 -46 0
-9 210 -46 0
-9 -210 46 0
10 214 49 0
10 -214 -49 0
-10 214 -49 0
-10 -214 49 0
11 216 52 0
11 -216 -52 0
-11 216 -52 0
-11 -216 52 0
12 217 55 0
12 -217 -55 0
-12 217 -55 0
-12 -217 55 0
13 226 58 0
13 -226 -58 0
-13 226 -58 0
-13 -226 58 0
14 230 61 0
14 -230 -61 0
-14 230 -61 0
-14 -230 61 0
15 234 64 0
15 -234 -64 0
-15 234 -64 0
-15 -234 64 0
16 236 67 0
16 -236 -67 0
-16 236 -67 0
-16 -236 67 0
17 237 70 0
17 -237 -70 0
-17 237 -70 0
-17 -237 70 0
18 246 73 0
18 -246 -73 0
-18 246 -73 0
-18 -246 73 0
19 250 76 0
19 -250 -76 0
-19 250 -76 0
-19 -250 76 0
20 254 79 0
20 -254 -79 0
-20 254 -79 0
-20 -254 79 0
21 256 82 0
21 -256 -82 0
-21 256 -82 0
-21 -256 82 0
22 257 85 0
22 -257 -85 0
-22 257 -85 0
-22 -257 85 0
23 266 88 0
23 -266 -88 0
-23 266 -88 0
-23 -266 88 0
24 270 91 0
24 -270 -91 0
-24 270 -91 0
-24 -270 91 0
25 274 94 0
25 -274 -94 0
-25 274 -94 0
-25 -274 94 0
26 276 97 0
26 -276 -97 0
-26 276 -97 0
-26 -276 97 0
27 277 100 0
27 -277 -100 0
-27 277 -100 0
-27 -277 100 0
28 103 -29 0
28 -103 29 0
-28 103 29 0
-28 -103 -29 0
-29 30 0
-29 112 0
29 -112 -30 0
30 115 0
-30 -115 0
31 106 -32 0
31 -106 32 0
-31 106 32 0
-31 -106 -32 0
-32 33 0
-32 115 0
32 -115 -33 0
33 103 0
-33 -103 0
34 109 -35 0
34 -109 35 0
-34 109 35 0
-34 -109 -35 0
-35 36 0
-35 103 0
35 -103 -36 0
36 106 0
-36 -106 0
37 112 -38 0
37 -112 38 0
-37 112 38 0
-37 -112 -38 0
-38 39 0
-38 106 0
38 -106 -39 0
39 109 0
-39 -109 0
40 115 -41 0
40 -115 41 0
-40 115 41 0
-40 -115 -41 0
-41 42 0
-41 109 0
41 -109 -42 0
42 112 0
-42 -112 0
43 118 -44 0
43 -118 44 0
-43 118 44 0
-43 -118 -44 0
-44 45 0
-44 127 0
44 -127 -45 0
45 130 0
-45 -130 0
46 121 -47 0
46 -121 47 0
-46 121 47 0
-46 -121 -47 0
-47 48 0
-47 130 0
47 -130 -48 0
48 118 0
-48 -118 0
49 124 -50 0
49 -124 50 0
-49 124 50 0
-49 -124 -50 0
-50 51 0
-50 118 0
50 -118 -51 0
51 121 0
-51 -121 0
52 127 -53 0
52 -127 53 0
-52 127 53 0
-52 -127 -53 0
-53 54 0
-53 121 0
53 -121 -54 0
54 124 0
-54 -124 0
55 130 -56 0
55 -130 56 0
-55 130 56 0
-55 -130 -56 0
-56 57 0
-56 124 0
56 -124 -57 0
57 127 0
-57 -127 0
58 133 -59 0
58 -133 59 0
-58 133 59 0
-58 -133 -59 0
-59 60 0
-59 142 0
59 -142 -60 0
60 145 0
-60 -145 0
61 136 -62 0
61 -136 62 0
-61 136 62 0
-61 -136 -62 0
-62 63 0
-62 145 0
62 -145 -63 0
63 133 0
-63 -133 0
64 139 -65 0
64 -139 65 0
-64 139 65 0
-64 -139 -65 0
-65 66 0
-65 133 0
65 -133 -66 0
66 136 0
-66 -136 0
67 142 -68 0
67 -142 68 0
-67 142 68 0
-67 -142 -68 0
-68 69 0
-68 136 0
68 -136 -69 0
69 139 0
-69 -139 0
70 145 -71 0
70 -145 71 0
-70 145 71 0
-70 -145 -71 0
-71 72 0
-71 139 0
71 -139 -72 0
72 142 0
-72 -142 0
73 148 -74 0
73 -148 74 0
-73 148 74 0
-73 -148 -74 0
-74 75 0
-74 157 0
74 -157 -75 0
75 160 0
-75 -160 0
76 151 -77 0
76 -151 77 0
-76 151 77 0
-76 -151 -77 0
-77 78 0
-77 160 0
77 -160 -78 0
78 148 0
-78 -148 0
79 154 -80 0
79 -154 80 0
-79 154 80 0
-79 -154 -80 0
-80 81 0
-80 148 0
80 -148 -81 0
81 151 0
-81 -151 0
82 157 -83 0
82 -157 83 0
-82 157 83 0
-82 -157 -83 0
-83 84 0
-83 151 0
83 -151 -84 0
84 154 0
-84 -154 0
85 160 -86 0
85 -160 86 0
-85 160 86 0
-85 -160 -86 0
-86 87 0
-86 154 0
86 -154 -87 0
87 157 0
-87 -157 0
88 163 -89 0
88 -163 89 0
-88 163 89 0
-88 -163 -89 0
-89 90 0
-89 172 0
89 -172 -90 0
90 175 0
-90 -175 0
91 166 -92 0
91 -166 92 0
-91 166 92 0
-91 -166 -92 0
-92 93 0
-92 175 0
92 -175 -93 0
93 163 0
-93 -163 0
94 169 -95 0
94 -169 95 0
-94 169 95 0
-94 -169 -95 0
-95 96 0
-95 163 0
95 -163 -96 0
96 166 0
-96 -166 0
97 172 -98 0
97 -172 98 0
-97 172 98 0
-97 -172 -98 0
-98 99 0
-98 166 0
98 -166 -99 0
99 169 0
-99 -169 0
100 175 -101 0
100 -175 101 0
-100 175 101 0
-100 -175 -101 0
-101 102 0
-101 169 0
101 -169 -102 0
102 172 0
-102 -172 0
103 178 -104 0
103 -178 104 0
-103 178 104 0
-103 -178 -104 0
-104 105 0
-104 188 0
104 -188 -105 0
105 192 0
-105 -192 0
106 181 -107 0
106 -181 107 0
-106 181 107 0
-106 -181 -107 0
-107 108 0
-107 192 0
107 -192 -108 0
108 178 0
-108 -178 0
109 184 -110 0
109 -184 110 0
-109 184 110 0
-109 -184 -110 0
-110 111 0
-110 178 0
110 -178 -111 0
111 181 0
-111 -181 0
112 188 -113 0
112 -188 113 0
-112 188 113 0
-112 -188 -113 0
-113 114 0
-113 181 0
113 -181 -114 0
114 184 0
-114 -184 0
115 192 -116 0
115 -192 116 0
-115 192 116 0
-115 -192 -116 0
-116 117 0
-116 184 0
116 -184 -117 0
117 188 0
-117 -188 0
118 198 -119 0
118 -198 119 0
-118 198 119 0
-118 -198 -119 0
-119 120 0
-119 208 0
119 -208 -120 0
120 212 0
-120 -212 0
121 201 -122 0
121 -201 122 0
-121 201 122 0
-121 -201 -122 0
-122 123 0
-122 212 0
122 -212 -123 0
123 198 0
-123 -198 0
124 204 -125 0
124 -204 125 0
-124 204 125 0
-124 -204 -125 0
-125 126 0
-125 198 0
125 -198 -126 0
126 201 0
-126 -201 0
127 208 -128 0
127 -208 128 0
-127 208 128 0
-127 -208 -128 0
-128 129 0
-128 201 0
128 -201 -129 0
129 204 0
-129 -204 0
130 212 -131 0
130 -212 131 0
-130 212 131 0
-130 -212 -131 0
-131 132 0
-131 204 0
131 -204 -132 0
132 208 0
-132 -208 0
133 218 -134 0
133 -218 134 0
-133 218 134 0
-133 -218 -134 0
-134 135 0
-134 228 0
134 -228 -135 0
135 232 0
-135 -232 0
136 221 -137 0
136 -221 137 0
-136 221 137 0
-136 -221 -137 0
-137 138 0
-137 232 0
137 -232 -138 0
138 218 0
-138 -218 0
139 224 -140 0
139 -224 140 0
-139 224 140 0
-139 -224 -140 0
-140 141 0
-140 218 0
140 -218 -141 0
141 221 0
-141 -221 0
142 228 -143 0
142 -228 143 0
-142 228 143 0
-142 -228 -143 0
-143 144 0
-143 221 0
143 -221 -144 0
144 224 0
-144 -224 0
145 232 -146 0
145 -232 146 0
-145 232 146 0
-145 -232 -146 0
-146 147 0
-146 224 0
146 -224 -147 0
147 228 0
-147 -228 0
148 238 -149 0
148 -238 149 0
-148 238 149 0
-148 -238 -149 0
-149 150 0
-149 248 0
149 -248 -150 0
150 252 0
-150 -252 0
151 241 -152 0
151 -241 152 0
-151 241 152 0
-151 -241 -152 0
-152 153 0
-152 252 0
152 -252 -153 0
153 238 0
-153 -238 0
154 244 -155 0
154 -244 155 0
-154 244 155 0
-154 -244 -155 0
-155 156 0
-155 238 0
155 -238 -156 0
156 241 0
-156 -241 0
157 248 -158 0
157 -248 158 0
-157 248 158 0
-157 -248 -158 0
-158 159 0
-158 241 0
158 -241 -159 0
159 244 0
-159 -244 0
160 252 -161 0
160 -252 161 0
-160 252 161 0
-160 -252 -161 0
-161 162 0
-161 244 0
161 -244 -162 0
162 248 0
-162 -248 0
163 258 -164 0
163 -258 164 0
-163 258 164 0
-163 -258 -164 0
-164 165 0
-164 268 0
164 -268 -165 0
165 272 0
-165 -272 0
166 261 -167 0
166 -261 167 0
-166 261 167 0
-166 -261 -167 0
-167 168 0
-167 272 0
167 -272 -168 0
168 258 0
-168 -258 0
169 264 -170 0
169 -264 170 0
-169 264 170 0
-169 -264 -170 0
-170 171 0
-170 258 0
170 -258 -171 0
171 261 0
-171 -261 0
172 268 -173 0
172 -268 173 0
-172 268 173 0
-172 -268 -173 0
-173 174 0
-173 261 0
173 -261 -174 0
174 264 0
-174 -264 0
175 272 -176 0
175 -272 176 0
-175 272 176 0
-175 -272 -176 0
-176 177 0
-176 264 0
176 -264 -177 0
177 268 0
-177 -268 0
178 186 -179 0
178 -186 179 0
-178 186 179 0
-178 -186 -179 0
-179 180 0
-179 196 0
179 -196 -180 0
180 197 0
-180 -197 0
181 190 -182 0
181 -190 182 0
-181 190 182 0
-181 -190 -182 0
-182 183 0
-182 197 0
182 -197 -183 0
183 186 0
-183 -186 0
184 194 -185 0
184 -194 185 0
-184 194 185 0
-184 -194 -185 0
-185 186 0
-185 187 0
185 -187 -186 0
187 190 0
-187 -190 0
188 196 -189 0
188 -196 189 0
-188 196 189 0
-188 -196 -189 0
-189 190 0
-189 191 0
189 -191 -190 0
191 194 0
-191 -194 0
192 197 -193 0
192 -197 193 0
-192 197 193 0
-192 -197 -193 0
-193 194 0
-193 195 0
193 -195 -194 0
195 196 0
-195 -196 0
198 206 -199 0
198 -206 199 0
-198 206 199 0
-198 -206 -199 0
-199 200 0
-199 216 0
199 -216 -200 0
200 217 0
-200 -217 0
201 210 -202 0
201 -210 202 0
-201 210 202 0
-201 -210 -202 0
-202 203 0
-202 217 0
202 -217 -203 0
203 206 0
-203 -206 0
204 214 -205 0
204 -214 205 0
-204 214 205 0
-204 -214 -205 0
-205 206 0
-205 207 0
205 -207 -206 0
207 210 0
-207 -210 0
208 216 -209 0
208 -216 209 0
-208 216 209 0
-208 -216 -209 0
-209 210 0
-209 211 0
209 -211 -210 0
211 214 0
-211 -214 0
212 217 -213 0
212 -217 213 0
-212 217 213 0
-212 -217 -213 0
-213 214 0
-213 215 0
213 -215 -214 0
215 216 0
-215 -216 0
218 226 -219 0
218 -226 219 0
-218 226 219 0
-218 -226 -219 0
-219 220 0
-219 236 0
219 -236 -220 0
220 237 0
-220 -237 0
221 230 -222 0
221 -230 222 0
-221 230 222 0
-221 -230 -222 0
-222 223 0
-222 237 0
222 -237 -223 0
223 226 0
-223 -226 0
224 234 -225 0
224 -234 225 0
-224 234 225 0
-224 -234 -225 0
-225 226 0
-225 227 0
225 -227 -226 0
227 230 0
-227 -230 0
228 236 -229 0
228 -236 229 0
-228 236 229 0
-228 -236 -229 0
-229 230 0
-229 231 0
229 -231 -230 0
231 234 0
-231 -234 0
232 237 -233 0
232 -237 233 0
-232 237 233 0
-232 -237 -233 0
-233 234 0
-233 235 0
233 -235 -234 0
235 236 0
-235 -236 0
238 246 -239 0
238 -246 239 0
-238 246 239 0
-238 -246 -239 0
-239 240 0
-239 256 0
239 -256 -240 0
240 257 0
-240 -257 0
241 250 -242 0
241 -250 242 0
-241 250 242 0
-241 -250 -242 0
-242 243 0
-242 257 0
242 -257 -243 0
243 246 0
-243 -246 0
244 254 -245 0
244 -254 245 0
-244 254 245 0
-244 -254 -245 0
-245 246 0
-245 247 0
245 -247 -246 0
247 250 0
-247 -250 0
248 256 -249 0
248 -256 249 0
-248 256 249 0
-248 -256 -249 0
-249 250 0
-249 251 0
249 -251 -250 0
251 254 0
-251 -254 0
252 257 -253 0
252 -257 253 0
-252 257 253 0
-252 -257 -253 0
-253 254 0
-253 255 0
253 -255 -254 0
255 256 0
-255 -256 0
258 266 -259 0
258 -266 259 0
-258 266 259 0
-258 -266 -259 0
-259 260 0
-259 276 0
259 -276 -260 0
260 277 0
-260 -277 0
261 270 -262 0
261 -270 262 0
-261 270 262 0
-261 -270 -262 0
-262 263 0
-262 277 0
262 -277 -263 0
263 266 0
-263 -266 0
264 274 -265 0
264 -274 265 0
-264 274 265 0
-264 -274 -265 0
-265 266 0
-265 267 0
265 -267 -266 0
267 270 0
-267 -270 0
268 276 -269 0
268 -276 269 0
-268 276 269 0
-268 -276 -269 0
-269 270 0
-269 271 0
269 -271 -270 0
271 274 0
-271 -274 0
272 277 -273 0
272 -277 273 0
-272 277 273 0
-272 -277 -273 0
-273 274 0
-273 275 0
273 -275 -274 0
275 276 0
-275 -276 0
